Tried aggregator 2 times.
MIP Presolve eliminated 8 rows and 8 columns.
Aggregator did 4 substitutions.
Reduced MIP has 105109 rows, 140148 columns, and 350364 nonzeros.
Reduced MIP has 35036 binaries, 0 generals, 0 SOSs, and 0 indicators.
Presolve time = 0.32 sec. (224.71 ticks)
Found incumbent of value 2769.775437 after 0.83 sec. (680.20 ticks)
Probing time = 0.20 sec. (6.64 ticks)
Tried aggregator 1 time.
Reduced MIP has 105109 rows, 140148 columns, and 350364 nonzeros.
Reduced MIP has 35036 binaries, 0 generals, 0 SOSs, and 0 indicators.
Presolve time = 0.38 sec. (189.93 ticks)
Probing time = 0.19 sec. (6.24 ticks)
MIP emphasis: balance optimality and feasibility.
MIP search method: dynamic search.
Parallel mode: deterministic, using up to 20 threads.
Root relaxation solution time = 1.39 sec. (984.16 ticks)

        Nodes                                         Cuts/
   Node  Left     Objective  IInf  Best Integer    Best Bound    ItCnt     Gap

*     0+    0                         2769.7754   1.51952e+07              --- 
*     0+    0                       104901.2447   1.51952e+07              --- 
      0     0  4678971.0124  1535   104901.2447  4678971.0124    14633     --- 
*     0+    0                      4510090.3733  4678971.0124             3.74%
      0     0  4653757.4526   720  4510090.3733    Cuts: 3180    15943    3.19%
      0     0  4651300.9961   556  4510090.3733    Cuts: 2579    16830    3.13%
      0     0  4648898.8317   618  4510090.3733    Cuts: 1854    17598    3.08%
      0     0  4637200.1952   516  4510090.3733    Cuts: 1685    18255    2.82%
*     0+    0                      4540018.9644  4637200.1952             2.14%
      0     0  4636122.8536   568  4540018.9644     Cuts: 920    18719    2.12%
      0     0  4634851.3064   582  4540018.9644     Cuts: 698    19112    2.09%
      0     0  4633454.6666   548  4540018.9644     Cuts: 518    19482    2.06%
      0     0  4632568.0524   516  4540018.9644     Cuts: 382    19721    2.04%
      0     0  4632023.9967   494  4540018.9644     Cuts: 226    19867    2.03%
      0     0  4631738.0613   502  4540018.9644     Cuts: 154    19985    2.02%
      0     0  4631489.6123   492  4540018.9644  MIRcuts: 108    20065    2.01%
*     0+    0                      4594728.4381  4631489.6123             0.80%
*     0+    0                      4607162.7809  4631489.6123             0.53%
      0     2  4631489.6123   492  4607162.7809  4631489.6123    20065    0.53%
Elapsed time = 15.57 sec. (10900.73 ticks, tree = 0.01 MB, solutions = 6)
      4     6  4631374.3153   488  4607162.7809  4631486.9689    20074    0.53%
      5     7  4631263.5215   486  4607162.7809  4631486.9689    20077    0.53%
      6     8  4631326.9779   487  4607162.7809  4631486.9689    20079    0.53%
      7     9  4631216.1841   485  4607162.7809  4631486.9689    20081    0.53%
      8    10  4631362.3964   486  4607162.7809  4631486.9689    20084    0.53%
      9    11  4631251.6025   484  4607162.7809  4631486.9689    20087    0.53%
     10    12  4631437.7718   489  4607162.7809  4631484.4132    20089    0.53%
     11    13  4631313.4614   486  4607162.7809  4631484.4132    20093    0.53%
     12    14  4631201.0700   485  4607162.7809  4631484.4132    20099    0.53%
     39    41  4631303.1334   485  4607162.7809  4631484.4132    20182    0.53%
Elapsed time = 17.25 sec. (11903.74 ticks, tree = 0.01 MB, solutions = 6)
    422   424  4630911.2834   476  4607162.7809  4631484.4132    21265    0.53%
    423   425  4630670.8619   476  4607162.7809  4631484.4132    21268    0.53%
    424   426  4630798.8672   476  4607162.7809  4631484.4132    21272    0.53%
    425   427  4630798.8920   475  4607162.7809  4631484.4132    21276    0.53%
    426   428  4630603.0411   472  4607162.7809  4631484.4132    21279    0.53%
    427   429  4630558.4953   474  4607162.7809  4631484.4132    21282    0.53%
    434   436  4630757.5805   475  4607162.7809  4631484.4132    21296    0.53%
    435   437  4630759.4895   473  4607162.7809  4631484.4132    21298    0.53%
    436   438  4630647.0981   472  4607162.7809  4631484.4132    21300    0.53%
    440   442  4630603.7413   473  4607162.7809  4631484.4132    21307    0.53%
Elapsed time = 20.97 sec. (12862.64 ticks, tree = 0.01 MB, solutions = 6)
    621   623  4630777.5532   471  4607162.7809  4631484.4132    21804    0.53%
    641   643  4630807.2046   468  4607162.7809  4631484.4132    21863    0.53%
    643   645  4630621.8913   475  4607162.7809  4631484.4132    21869    0.53%
    644   646  4630621.9162   474  4607162.7809  4631484.4132    21873    0.53%
    645   647  4630611.4344   471  4607162.7809  4631484.4132    21877    0.53%
    646   648  4630567.5058   471  4607162.7809  4631484.4132    21881    0.53%
    661   663  4630803.4522   468  4607162.7809  4631484.4132    21913    0.53%
    663   665  4630611.3847   473  4607162.7809  4631484.4132    21918    0.53%
    664   666  4630611.4095   472  4607162.7809  4631484.4132    21922    0.53%
    665   667  4630607.6820   471  4607162.7809  4631484.4132    21923    0.53%
Elapsed time = 22.78 sec. (14076.38 ticks, tree = 0.01 MB, solutions = 6)
*   689+  689                      4607881.1943  4631484.4132             0.51%
*   691+  691                      4608180.6131  4631484.4132             0.51%
   1151  1153  4630497.6206   461  4608180.6131  4631484.4132    23256    0.51%
   1170  1172  4630415.8300   458  4608180.6131  4631484.4132    23298    0.51%
   1171  1173  4630208.7010   460  4608180.6131  4631484.4132    23306    0.51%
   1172  1174  4630069.7383   455  4608180.6131  4631484.4132    23314    0.51%
   1173  1175  4630025.8097   455  4608180.6131  4631484.4132    23322    0.51%
   1178  1180  4630485.3591   454  4608180.6131  4631484.4132    23341    0.51%
   1179  1181  4630436.1899   455  4608180.6131  4631484.4132    23346    0.51%
   1180  1182  4630061.0860   434  4608180.6131  4631484.4132    23351    0.51%
   1190  1192  4630414.4730   456  4608180.6131  4631484.4132    23377    0.51%
   1191  1193  4630453.8095   459  4608180.6131  4631484.4132    23378    0.51%
Elapsed time = 25.33 sec. (15125.12 ticks, tree = 2.53 MB, solutions = 9)
   1434  1436  4630499.5726   441  4608180.6131  4631484.4132    24024    0.51%
   1454  1456  4630483.5793   440  4608180.6131  4631484.4132    24086    0.51%
   1456  1458  4630032.8404   445  4608180.6131  4631484.4132    24096    0.51%
   1461  1463  4630047.7886   439  4608180.6131  4631484.4132    24123    0.51%
   1474  1476  4630447.9283   439  4608180.6131  4631484.4132    24180    0.51%
   1476  1478  4630307.0380   446  4608180.6131  4631484.4132    24185    0.51%
   1481  1483  4630213.7519   441  4608180.6131  4631484.4132    24202    0.51%
   1494  1496  4630412.2773   438  4608180.6131  4631484.4132    24236    0.51%
   1496  1498  4630291.0447   445  4608180.6131  4631484.4132    24243    0.51%
   1497  1499  4630285.2374   446  4608180.6131  4631484.4132    24246    0.51%
Elapsed time = 28.08 sec. (16089.35 ticks, tree = 17.08 MB, solutions = 9)
   2145  2147  4628879.3817   411  4608180.6131  4631484.4132    25867    0.51%
   2148  2150  4629470.2309   418  4608180.6131  4631484.4132    25872    0.51%
   2165  2167  4628942.1753   411  4608180.6131  4631484.4132    25916    0.51%
   2168  2170  4629468.9323   415  4608180.6131  4631484.4132    25924    0.51%
   2174  2176  4629386.5701   406  4608180.6131  4631484.4132    25940    0.51%
   2185  2187  4628778.5556   411  4608180.6131  4631484.4132    25974    0.51%
   2186  2188  4628625.8177   410  4608180.6131  4631484.4132    25976    0.51%
   2188  2190  4629467.6337   412  4608180.6131  4631484.4132    25979    0.51%
   2191  2193  4628652.3306   402  4608180.6131  4631484.4132    25986    0.51%
   2192  2194  4628763.4653   410  4608180.6131  4631484.4132    25987    0.51%
Elapsed time = 31.06 sec. (17081.77 ticks, tree = 30.16 MB, solutions = 9)
   2558  2560  4628088.5349   408  4608180.6131  4631484.4132    26821    0.51%
   2578  2580  4627886.5701   405  4608180.6131  4631484.4132    26892    0.51%
   2582  2584  4627903.1945   375  4608180.6131  4631484.4132    26905    0.51%
*  2583+ 2583                      4609255.5703  4631484.4132             0.48%
   2583  2585  4628409.4113   382  4609255.5703  4631484.4132    26910    0.48%
   2588  2590  4628711.0053   416  4609255.5703  4631484.4132    26921    0.48%
   2593  2595  4628157.6049   416  4609255.5703  4631484.4132    26942    0.48%
   2598  2600  4627832.8733   406  4609255.5703  4631484.4132    26957    0.48%
   2602  2604  4627840.4009   375  4609255.5703  4631484.4132    26967    0.48%
   2603  2605  4628308.5852   382  4609255.5703  4631484.4132    26972    0.48%
   2606  2608  4628932.7073   421  4609255.5703  4631484.4132    26978    0.48%
Elapsed time = 35.33 sec. (18735.79 ticks, tree = 51.44 MB, solutions = 9)
*  3512+ 3512                      4610584.0398  4631484.4132             0.45%
   3512  3514  4628177.0589   379  4610584.0398  4631484.4132    29421    0.45%
   3532  3534  4628087.6559   379  4610584.0398  4631484.4132    29472    0.45%
   3549  3551  4627947.7909   391  4610584.0398  4631484.4132    29509    0.45%
   3551  3553  4627787.5789   391  4610584.0398  4631484.4132    29518    0.45%
   3552  3554  4628110.9341   379  4610584.0398  4631484.4132    29520    0.45%
   3569  3571  4627836.3993   391  4610584.0398  4631484.4132    29559    0.45%
   3570  3572  4626369.4678   373  4610584.0398  4631484.4132    29561    0.45%
   3571  3573  4627810.8571   391  4610584.0398  4631484.4132    29563    0.45%
   3572  3574  4628107.6257   376  4610584.0398  4631484.4132    29564    0.45%
   3573  3575  4625919.0395   345  4610584.0398  4631484.4132    29565    0.45%
Elapsed time = 39.35 sec. (19698.92 ticks, tree = 73.30 MB, solutions = 10)
*  3641+ 3641                      4611709.4098  4631484.4132             0.43%
   3889  3891  4627507.5531   376  4611709.4098  4631484.4132    30173    0.43%
   3909  3911  4627435.7226   376  4611709.4098  4631484.4132    30222    0.43%
   3916  3918  4626463.3022   371  4611709.4098  4631484.4132    30233    0.43%
   3929  3931  4627483.7582   376  4611709.4098  4631484.4132    30278    0.43%
   3936  3938  4626418.6176   369  4611709.4098  4631484.4132    30300    0.43%
   3949  3951  4627471.8426   375  4611709.4098  4631484.4132    30345    0.43%
   3951  3953  4627158.6868   373  4611709.4098  4631484.4132    30353    0.43%
   3952  3954  4627393.3736   362  4611709.4098  4631484.4132    30355    0.43%
   3956  3958  4626220.9554   369  4611709.4098  4631484.4132    30367    0.43%
   3969  3971  4627427.1580   373  4611709.4098  4631484.4132    30405    0.43%
Elapsed time = 41.04 sec. (20751.31 ticks, tree = 73.30 MB, solutions = 10)
   4868  4870  4625841.1338   339  4611709.4098  4631484.4132    32612    0.43%
   4878  4880  4621486.7823   275  4611709.4098  4631484.4132    32640    0.43%
   4879  4881  4621363.2960   276  4611709.4098  4631484.4132    32644    0.43%
   4880  4882  4623481.2726   291  4611709.4098  4631484.4132    32648    0.43%
   4881  4883  4622445.0511   282  4611709.4098  4631484.4132    32652    0.43%
   4885  4887  4625966.6045   359  4611709.4098  4631484.4132    32661    0.43%
   4887  4889  4625718.2509   353  4611709.4098  4631484.4132    32669    0.43%
   4888  4890  4625842.7131   339  4611709.4098  4631484.4132    32672    0.43%
   4889  4891  4622997.4457   277  4611709.4098  4631484.4132    32673    0.43%
*  5910+ 5910                      4612115.3015  4631484.4132             0.42%
*  5910+ 5910                      4612403.7480  4631484.4132             0.41%
*  5910+ 5910                      4612422.8699  4631484.4132             0.41%
*  5910+ 5910                      4612574.1756  4631484.4132             0.41%
*  5910+ 5910                      4612702.7850  4631484.4132             0.41%
   5910  5912  4621537.2279   298  4612702.7850  4631484.4132    34937    0.41%
Elapsed time = 75.40 sec. (40995.43 ticks, tree = 275.82 MB, solutions = 14)
*  5911+ 5911                      4612738.5066  4631484.4132             0.41%
*  5911+ 5911                      4613084.0028  4631484.4132             0.40%
*  5911+ 5911                      4613136.4905  4631484.4132             0.40%
*  5911+ 5911                      4613191.2039  4631484.4132             0.40%
*  5911+ 5911                      4613275.6006  4631484.4132             0.39%
   5914  5916  4620748.8536   257  4613275.6006  4631484.4132    34943    0.39%
   5916  5918  4620879.0594   257  4613275.6006  4631484.4132    34949    0.39%
   5917  5919  4621027.7919   263  4613275.6006  4631484.4132    34950    0.39%
*  5922+ 5922                      4613413.3114  4631484.4132             0.39%
   5922  5924  4621649.8786   253  4613413.3114  4631484.4132    34964    0.39%
   5926  5928  4622719.0540   284  4613413.3114  4631484.4132    34975    0.39%
*  5927+ 5927                      4613425.8319  4631484.4132             0.39%
*  5930+ 3953                      4613758.4045  4615884.7027             0.05%
*  5930+ 2634                      4615290.4435  4615705.6893             0.01%

Implied bound cuts applied:  156
Flow cuts applied:  85
Mixed integer rounding cuts applied:  5481
Lift and project cuts applied:  25
Gomory fractional cuts applied:  282

Root node processing (before b&c):
  Real time             =   15.02 sec. (10869.78 ticks)
Parallel b&c, 20 threads:
  Real time             =   89.66 sec. (57918.21 ticks)
  Sync time (average)   =   14.48 sec.
  Wait time (average)   =   15.45 sec.
                          ------------
Total (root+branch&cut) =  104.68 sec. (68788.00 ticks)
MKLROOT=/global/software/sl-6.x86_64/modules/langs/intel/2015.6.233/mkl
SLURM_NODELIST=n0051.savio1
SLURM_CHECKPOINT_IMAGE_DIR=/var/slurm/checkpoint
MANPATH=/global/software/sl-6.x86_64/modules/langs/julia/0.5.0/share/man:/global/software/sl-6.x86_64/modules/langs/intel/2015.6.233/man/en_US:/global/software/sl-6.x86_64/modules/langs/gcc/4.8.5/share/man:/usr/share/man
SLURM_JOB_NAME=aggregator
HOSTNAME=n0051.savio1
SLURM_NTASKS_PER_NODE=1
SLURM_TOPOLOGY_ADDR=ib-savio.ib-savio-02.n0051.savio1
SLURMD_NODENAME=n0051.savio1
SLURM_PRIO_PROCESS=0
SLURM_NODE_ALIASES=(null)
TERM=xterm-256color
SHELL=/bin/bash
HISTSIZE=1000
SLURM_JOB_QOS=savio_normal
SSH_CLIENT=128.32.156.166 53087 22
SLURM_TOPOLOGY_ADDR_PATTERN=switch.switch.node
TMPDIR=/tmp
LIBRARY_PATH=/global/software/sl-6.x86_64/modules/langs/julia/0.5.0/lib/julia:/global/software/sl-6.x86_64/modules/langs/intel/2015.6.233/mkl/lib/intel64:/global/software/sl-6.x86_64/modules/langs/gcc/4.8.5/lib64:/global/software/sl-6.x86_64/modules/langs/gcc/4.8.5/lib
GCC_DIR=/global/software/sl-6.x86_64/modules/langs/gcc/4.8.5
FPATH=/global/software/sl-6.x86_64/modules/langs/intel/2015.6.233/mkl/include/fftw:/global/software/sl-6.x86_64/modules/langs/intel/2015.6.233/mkl/include
SSH_TTY=/dev/pts/23
USER=jdlara
SLURM_NNODES=1
LD_LIBRARY_PATH=/global/software/sl-6.x86_64/modules/langs/julia/0.5.0/lib/julia:/global/software/sl-6.x86_64/modules/langs/intel/2015.6.233/mkl/lib/intel64:/global/software/sl-6.x86_64/modules/langs/gcc/4.8.5/lib64:/global/software/sl-6.x86_64/modules/langs/gcc/4.8.5/lib:/global/home/users/jdlara/gurobi652/linux64/lib
LS_COLORS=rs=0:di=38;5;27:ln=38;5;51:mh=44;38;5;15:pi=40;38;5;11:so=38;5;13:do=38;5;5:bd=48;5;232;38;5;11:cd=48;5;232;38;5;3:or=48;5;232;38;5;9:mi=05;48;5;232;38;5;15:su=48;5;196;38;5;15:sg=48;5;11;38;5;16:ca=48;5;196;38;5;226:tw=48;5;10;38;5;16:ow=48;5;10;38;5;21:st=48;5;21;38;5;15:ex=38;5;34:*.tar=38;5;9:*.tgz=38;5;9:*.arj=38;5;9:*.taz=38;5;9:*.lzh=38;5;9:*.lzma=38;5;9:*.tlz=38;5;9:*.txz=38;5;9:*.zip=38;5;9:*.z=38;5;9:*.Z=38;5;9:*.dz=38;5;9:*.gz=38;5;9:*.lz=38;5;9:*.xz=38;5;9:*.bz2=38;5;9:*.tbz=38;5;9:*.tbz2=38;5;9:*.bz=38;5;9:*.tz=38;5;9:*.deb=38;5;9:*.rpm=38;5;9:*.jar=38;5;9:*.rar=38;5;9:*.ace=38;5;9:*.zoo=38;5;9:*.cpio=38;5;9:*.7z=38;5;9:*.rz=38;5;9:*.jpg=38;5;13:*.jpeg=38;5;13:*.gif=38;5;13:*.bmp=38;5;13:*.pbm=38;5;13:*.pgm=38;5;13:*.ppm=38;5;13:*.tga=38;5;13:*.xbm=38;5;13:*.xpm=38;5;13:*.tif=38;5;13:*.tiff=38;5;13:*.png=38;5;13:*.svg=38;5;13:*.svgz=38;5;13:*.mng=38;5;13:*.pcx=38;5;13:*.mov=38;5;13:*.mpg=38;5;13:*.mpeg=38;5;13:*.m2v=38;5;13:*.mkv=38;5;13:*.ogm=38;5;13:*.mp4=38;5;13:*.m4v=38;5;13:*.mp4v=38;5;13:*.vob=38;5;13:*.qt=38;5;13:*.nuv=38;5;13:*.wmv=38;5;13:*.asf=38;5;13:*.rm=38;5;13:*.rmvb=38;5;13:*.flc=38;5;13:*.avi=38;5;13:*.fli=38;5;13:*.flv=38;5;13:*.gl=38;5;13:*.dl=38;5;13:*.xcf=38;5;13:*.xwd=38;5;13:*.yuv=38;5;13:*.cgm=38;5;13:*.emf=38;5;13:*.axv=38;5;13:*.anx=38;5;13:*.ogv=38;5;13:*.ogx=38;5;13:*.aac=38;5;45:*.au=38;5;45:*.flac=38;5;45:*.mid=38;5;45:*.midi=38;5;45:*.mka=38;5;45:*.mp3=38;5;45:*.mpc=38;5;45:*.ogg=38;5;45:*.ra=38;5;45:*.wav=38;5;45:*.axa=38;5;45:*.oga=38;5;45:*.spx=38;5;45:*.xspf=38;5;45:
CPATH=/global/software/sl-6.x86_64/modules/langs/julia/0.5.0/include:/global/software/sl-6.x86_64/modules/langs/intel/2015.6.233/mkl/include/fftw:/global/software/sl-6.x86_64/modules/langs/intel/2015.6.233/mkl/include:/global/software/sl-6.x86_64/modules/langs/gcc/4.8.5/include
SLURM_JOBID=1277286
SLURM_NTASKS=1
NLSPATH=/global/software/sl-6.x86_64/modules/langs/intel/2015.6.233/mkl/lib/intel64/locale/en_US
MAIL=/var/spool/mail/jdlara
PATH=/global/software/sl-6.x86_64/modules/langs/julia/0.5.0/bin:/global/software/sl-6.x86_64/modules/langs/gcc/4.8.5/bin:/usr/local/bin:/bin:/usr/bin:/usr/local/sbin:/usr/sbin:/sbin:/global/home/groups/allhands/bin:/global/home/users/jdlara/gurobi652/linux64/bin:/global/home/users/jdlara/bin:/global/home/users/jdlara/gurobi652/linux64/bin
SLURM_TASKS_PER_NODE=20
SLURM_CPUS_PER_TASK=1
SLURM_JOB_ID=1277286
PWD=/global/home/users/jdlara/Julia_testcodes/aggregator_model/Multiple_fleet
SLURM_JOB_USER=jdlara
_LMFILES_=/global/software/sl-6.x86_64/modfiles/langs/gcc/4.8.5:/global/software/sl-6.x86_64/modfiles/gcc/4.8.5/mkl/2015.6.233:/global/software/sl-6.x86_64/modfiles/langs/julia/0.5.0
CUDA_VISIBLE_DEVICES=NoDevFiles
MODULEPATH=/global/software/sl-6.x86_64/modfiles/tools:/global/software/sl-6.x86_64/modfiles/langs:/global/software/sl-6.x86_64/modfiles/julia/0.5.0:/global/software/sl-6.x86_64/modfiles/gcc/4.8.5
LOADEDMODULES=gcc/4.8.5:mkl/2015.6.233:julia/0.5.0
SLURM_JOB_UID=42745
SLURM_NODEID=0
SLURM_SUBMIT_DIR=/global/home/users/jdlara/Julia_testcodes/aggregator_model/Multiple_fleet
SLURM_NPROCS=1
SLURM_TASK_PID=14685
LM_LICENSE_FILE=28518@lmgr0.hpcs.lbl.gov
SLURM_CPUS_ON_NODE=20
JULIA_DIR=/global/software/sl-6.x86_64/modules/langs/julia/0.5.0
ALLHANDS_BASHRC=1
HISTCONTROL=ignoredups
ENVIRONMENT=BATCH
SLURM_PROCID=0
MKL_DIR=/global/software/sl-6.x86_64/modules/langs/intel/2015.6.233/mkl
SLURM_JOB_NODELIST=n0051.savio1
SHLVL=3
HOME=/global/home/users/jdlara
SLURM_LOCALID=0
SLURM_CLUSTER_NAME=brc
SLURM_JOB_CPUS_PER_NODE=20
SLURM_SUBMIT_HOST=n0051.savio1
SLURM_GTIDS=0
SLURM_JOB_PARTITION=savio
LOGNAME=jdlara
CVS_RSH=ssh
SSH_CONNECTION=128.32.156.166 53087 10.0.0.22 22
SLURM_JOB_ACCOUNT=fc_emac
GPU_DEVICE_ORDINAL=NoDevFiles
MODULESHOME=/usr/Modules
SLURM_JOB_NUM_NODES=1
LESSOPEN=||/usr/bin/lesspipe.sh %s
INFOPATH=/global/software/sl-6.x86_64/modules/langs/gcc/4.8.5/share/info
INCLUDE=/global/software/sl-6.x86_64/modules/langs/julia/0.5.0/include:/global/software/sl-6.x86_64/modules/langs/intel/2015.6.233/mkl/include/fftw:/global/software/sl-6.x86_64/modules/langs/intel/2015.6.233/mkl/include:/global/software/sl-6.x86_64/modules/langs/gcc/4.8.5/include
G_BROKEN_FILENAMES=1
SLURM_MEM_PER_NODE=64000
BASH_FUNC_module()=() {  logger "$HOSTNAME $USER: module $*";
 eval `/usr/Modules/bin/modulecmd bash $*`
}
_=/bin/env
